
List of user-set options:

                                    Name   Value                used
                        file_print_level = 5                     yes
                   hessian_approximation = limited-memory        yes
                           linear_solver = mumps                 yes
                                max_iter = 300                   yes
                                 mu_init = 0.001                  no
                      nlp_scaling_method = user-scaling          yes
                             output_file = C:\Users\cmodi.000\Falcon9Sim\scripts\brachistochrone_dymos_out/IPOPT.out  yes
                             print_level = 5                     yes
                      print_user_options = yes                   yes
                                      sb = yes                   yes
                                     tol = 1e-07                 yes
This is Ipopt version 3.14.12, running with linear solver MUMPS 5.2.1.

Number of nonzeros in equality constraint Jacobian...:     2535
Number of nonzeros in inequality constraint Jacobian.:        0
Number of nonzeros in Lagrangian Hessian.............:        0

Total number of variables............................:       75
                     variables with only lower bounds:        0
                variables with lower and upper bounds:       47
                     variables with only upper bounds:        0
Total number of equality constraints.................:       45
Total number of inequality constraints...............:        0
        inequality constraints with only lower bounds:        0
   inequality constraints with lower and upper bounds:        0
        inequality constraints with only upper bounds:        0

iter    objective    inf_pr   inf_du lg(mu)  ||d||  lg(rg) alpha_du alpha_pr  ls
   0  2.0000000e+00 1.93e+00 3.97e-02   0.0 0.00e+00    -  0.00e+00 0.00e+00   0
   1  2.1751366e+00 1.29e+00 6.71e+00  -2.0 1.54e+00    -  2.82e-01 5.00e-01h  2
   2  2.5321441e+00 1.18e+00 6.98e+00  -3.2 2.79e+00    -  3.25e-01 1.28e-01h  3
   3  2.8395432e+00 1.01e+00 6.89e+00  -6.0 3.53e+00    -  2.64e-01 1.63e-01h  2
   4  3.0788695e+00 8.93e-01 6.79e+00  -6.1 5.82e+00    -  1.43e-01 9.33e-02h  1
   5  1.6668423e+00 5.99e+00 3.95e+01  -6.2 3.31e+01    -  1.56e-02 4.27e-02f  1
   6  1.6795461e+00 5.99e+00 3.93e+01  -0.3 2.31e+01    -  3.55e-02 1.16e-03h  1
   7  1.6791808e+00 5.98e+00 1.07e+02 -11.0 9.83e+00    -  5.55e-02 1.97e-03h  1
   8  1.6615736e+00 6.46e+00 1.01e+02 -11.0 9.75e+00    -  4.92e-02 5.25e-02h  1
   9  1.6811523e+00 6.43e+00 9.27e+02  -1.0 2.25e+01   2.0 2.24e-02 4.74e-03H  1
iter    objective    inf_pr   inf_du lg(mu)  ||d||  lg(rg) alpha_du alpha_pr  ls
  10  1.6928729e+00 6.41e+00 8.57e+02  -0.3 5.11e+02    -  3.48e-02 2.96e-03H  1
  11  1.7339672e+00 6.38e+00 1.06e+03  -0.3 1.63e+01    -  2.26e-02 5.09e-03h  3
  12  1.7841705e+00 6.34e+00 1.45e+03  -0.3 1.58e+01    -  5.06e-02 6.10e-03h  3
  13  1.8586396e+00 6.28e+00 1.48e+03 -11.0 1.64e+01    -  1.87e-02 9.26e-03h  3
  14  1.9241202e+00 6.22e+00 1.42e+03 -11.0 1.96e+01    -  2.31e-02 9.69e-03h  4
  15  2.4294444e+00 5.77e+00 1.16e+03 -11.0 1.51e+01    -  4.21e-02 7.26e-02H  1
  16  2.4270200e+00 5.76e+00 1.18e+03  -0.4 1.08e+02    -  1.69e-03 1.95e-03h  1
  17  2.4286949e+00 5.76e+00 1.16e+03  -0.4 1.62e+03    -  4.22e-05 4.64e-05h  1
  18  2.4290909e+00 5.76e+00 9.91e+02  -0.4 1.38e+02    -  1.68e-03 2.32e-05h  1
  19  2.4861336e+00 5.78e+00 1.13e+03  -0.4 7.92e+01    -  5.18e-04 3.62e-03f  1
iter    objective    inf_pr   inf_du lg(mu)  ||d||  lg(rg) alpha_du alpha_pr  ls
  20  2.4874987e+00 5.78e+00 1.09e+03  -0.4 2.39e+02    -  1.26e-05 5.97e-04h  1
  21  2.4967237e+00 5.79e+00 9.37e+02  -0.4 5.38e+02    -  9.04e-04 2.68e-04f  1
  22  2.4945947e+00 5.79e+00 8.89e+02  -0.4 4.87e+02    -  3.77e-06 3.52e-04h  1
  23  2.5034151e+00 5.79e+00 9.09e+02  -0.4 8.90e+02    -  2.42e-05 1.92e-04h  1
  24  2.5129593e+00 5.79e+00 2.24e+03  -0.4 5.08e+02    -  4.15e-02 7.51e-04H  1
  25  2.5143182e+00 5.79e+00 2.24e+03  -0.4 3.63e+03    -  2.34e-05 3.15e-05f  3
  26  2.7626951e+00 5.75e+00 2.19e+03  -0.4 2.11e+04    -  1.52e-02 1.92e-02H  1
  27  2.7645846e+00 5.75e+00 2.20e+03  -0.4 7.28e+04    -  1.06e-06 1.16e-06f  2
  28  2.7856503e+00 5.74e+00 3.79e+03  -0.4 1.14e+02    -  1.20e-01 1.58e-03H  1
  29  2.9014393e+00 5.69e+00 4.79e+03  -0.4 1.83e+04   1.9 2.71e-02 8.97e-03H  1
iter    objective    inf_pr   inf_du lg(mu)  ||d||  lg(rg) alpha_du alpha_pr  ls
  30  2.8907429e+00 5.70e+00 4.92e+03  -0.4 8.20e+03   1.9 2.79e-06 3.59e-05f  2
  31  2.8917072e+00 5.70e+00 4.91e+03  -0.4 8.58e+04   1.8 2.73e-07 1.01e-06f  3
  32r 2.8917072e+00 5.70e+00 1.00e+03   0.8 0.00e+00    -  0.00e+00 1.67e-07R  2
  33r 3.2046243e+00 2.08e+00 1.00e+03  -1.6 4.47e+03    -  1.74e-03 1.14e-03f  1
  34  3.1931032e+00 2.13e+00 9.25e+01  -0.4 5.17e+05    -  6.35e-06 7.80e-04F  1
  35  3.1832511e+00 2.14e+00 1.05e+02  -0.4 3.28e+06    -  8.11e-09 5.81e-08h  1
  36  3.6777016e+00 2.14e+00 2.44e+02  -0.4 5.57e+01    -  6.20e-03 1.89e-02f  1
  37  3.6822495e+00 2.14e+00 2.50e+02  -0.4 5.74e+01   0.9 1.63e-03 3.20e-04h  1
  38  3.7651525e+00 2.13e+00 2.72e+02  -0.4 4.62e+01  -0.1 3.86e-02 4.20e-03f  1
  39  3.8892006e+00 2.12e+00 2.67e+02  -0.4 6.78e+01    -  1.97e-02 4.32e-03f  4
iter    objective    inf_pr   inf_du lg(mu)  ||d||  lg(rg) alpha_du alpha_pr  ls
  40  4.0976703e+00 2.13e+00 2.84e+02  -0.4 4.94e+01    -  5.57e-02 9.82e-03h  3
  41  4.0989109e+00 2.13e+00 2.84e+02  -0.4 1.19e+02    -  3.80e-03 2.85e-05h  8
  42  4.1057436e+00 2.13e+00 2.85e+02  -0.4 1.88e+02    -  1.73e-04 1.67e-04f  5
  43  4.1128025e+00 2.13e+00 2.85e+02  -0.4 1.45e+02    -  3.64e-03 2.45e-04f  5
  44  4.1172613e+00 2.13e+00 2.85e+02  -0.4 1.40e+02    -  7.03e-04 1.57e-04f  6
  45  4.1202306e+00 2.13e+00 2.85e+02  -0.4 2.03e+02    -  5.16e-04 8.98e-05f  6
  46  4.1253357e+00 2.13e+00 2.86e+02  -0.4 1.88e+02    -  4.97e-04 1.60e-04f  5
  47  4.1743463e+00 2.14e+00 2.90e+02  -0.4 1.17e+02    -  6.04e-03 1.95e-03f  2
  48  4.2916248e+00 2.16e+00 2.61e+02  -0.4 6.26e+01    -  4.46e-03 7.31e-03H  1
  49r 4.2916248e+00 2.16e+00 9.99e+02   0.3 0.00e+00   0.8 0.00e+00 2.44e-07R  2
iter    objective    inf_pr   inf_du lg(mu)  ||d||  lg(rg) alpha_du alpha_pr  ls
  50r 4.3717959e+00 1.20e+00 9.98e+02  -5.7 1.67e+03    -  8.72e-04 1.28e-03f  1
  51  4.3743256e+00 1.20e+00 6.92e+00  -3.1 2.51e+03   1.6 3.00e-03 3.68e-04H  1
  52  4.3724129e+00 1.56e+00 4.71e+01  -5.6 2.41e+03   1.6 3.99e-05 1.09e-04h  1
  53  4.3753785e+00 1.54e+00 3.91e+01   0.3 2.23e+04    -  2.92e-04 8.85e-04F  1
  54  4.3733747e+00 1.54e+00 4.02e+01   0.3 2.83e+07   0.6 6.37e-11 8.85e-10f  2
  55r 4.3733747e+00 1.54e+00 9.99e+02   0.3 0.00e+00   1.5 0.00e+00 2.92e-07R  3
  56r 4.4432193e+00 4.80e-01 9.99e+02  -5.7 1.32e+03    -  2.06e-04 1.16e-03f  1
  57  4.4292647e+00 1.03e+00 2.22e+01  -5.6 6.44e+04   1.4 8.75e-07 3.53e-06f  1
  58r 4.4292647e+00 1.03e+00 9.99e+02   0.0 0.00e+00   1.4 0.00e+00 3.58e-07R  5
  59r 4.4948224e+00 4.62e-01 9.99e+02  -1.0 1.03e+03    -  3.88e-04 9.96e-04f  1
iter    objective    inf_pr   inf_du lg(mu)  ||d||  lg(rg) alpha_du alpha_pr  ls
  60  4.5281453e+00 4.61e-01 1.69e+00  -5.8 1.91e+01    -  1.67e-02 2.49e-03h  2
  61  4.6099349e+00 4.59e-01 2.85e+00  -5.8 2.38e+01    -  1.69e-02 4.21e-03h  3
  62  4.6485006e+00 4.58e-01 4.32e+00  -5.8 3.10e+01    -  1.58e-02 2.40e-03h  4
  63  4.6702496e+00 4.57e-01 7.09e+00  -2.3 3.25e+01    -  2.81e-02 1.68e-03h  5
  64  4.6906529e+00 4.56e-01 7.89e+00  -5.8 3.05e+01    -  4.23e-03 1.91e-03h  5
  65  4.7002233e+00 4.56e-01 8.36e+00  -3.0 2.85e+01    -  4.86e-03 9.95e-04h  6
  66  4.7094977e+00 4.55e-01 1.03e+01  -4.6 2.72e+01    -  1.86e-02 1.03e-03h  6
  67  4.7159285e+00 4.55e-01 1.50e+01  -2.7 2.42e+01    -  1.75e-02 8.17e-04h  6
  68  4.7200032e+00 4.55e-01 1.82e+01  -2.8 2.19e+01    -  8.89e-03 5.79e-04h  6
  69  4.7233516e+00 4.55e-01 2.19e+01  -2.8 2.26e+01    -  8.96e-03 5.04e-04h  6
iter    objective    inf_pr   inf_du lg(mu)  ||d||  lg(rg) alpha_du alpha_pr  ls
  70  4.7261834e+00 4.54e-01 3.18e+01  -2.9 2.32e+01    -  1.97e-02 4.49e-04h  6
  71  4.7282615e+00 4.54e-01 3.64e+01  -3.0 2.80e+01    -  7.19e-03 3.57e-04h  6
  72  4.7301831e+00 4.54e-01 5.93e+01  -3.1 3.08e+01    -  3.05e-02 3.39e-04h  6
  73  4.7314874e+00 4.54e-01 6.21e+01  -3.4 4.25e+01    -  2.76e-03 2.53e-04h  6
  74  4.7324273e+00 4.54e-01 6.21e+01  -3.3 3.01e+02   0.4 1.16e-04 1.16e-04s  9
  75  4.7197611e+00 4.54e-01 4.31e+01   0.3 3.03e+03    -  3.60e-04 4.90e-05f  2
  76  4.7068343e+00 4.54e-01 3.43e+01   0.3 1.10e+02    -  4.05e-03 7.40e-04f  2
  77  4.7076157e+00 4.55e-01 1.51e+02   0.3 6.24e+01    -  1.38e-02 6.31e-04f  2
  78  4.7424813e+00 4.52e-01 1.50e+02   0.3 4.17e+01    -  2.23e-02 5.39e-03f  2
  79  4.8699531e+00 8.37e-01 1.89e+02   0.3 2.40e+01    -  1.33e-02 1.99e-02f  2
iter    objective    inf_pr   inf_du lg(mu)  ||d||  lg(rg) alpha_du alpha_pr  ls
  80  4.8776874e+00 8.49e-01 2.13e+02   0.3 6.95e+01    -  2.02e-02 2.93e-03f  4
  81  4.8740590e+00 1.51e+00 1.78e+02   0.3 1.12e+05    -  8.59e-06 8.59e-06s  6
  82r 4.8740590e+00 1.51e+00 9.99e+02   0.3 0.00e+00    -  0.00e+00 0.00e+00R  1
  83r 4.8753217e+00 4.54e-01 9.95e+02  -2.5 1.20e+03    -  3.65e-03 1.24e-03f  1
  84r 4.8753217e+00 4.54e-01 9.96e+02   0.3 0.00e+00    -  0.00e+00 4.18e-07R 12
  85r 4.8987829e+00 4.46e-01 9.91e+02  -2.5 7.59e+01    -  1.76e-02 4.76e-03f  1
  86r 4.9142058e+00 7.87e-01 9.71e+02  -1.3 2.98e+01    -  2.13e-02 1.97e-02f  1
  87r 4.9305335e+00 9.73e-01 9.39e+02  -1.5 1.28e+01    -  1.01e-01 3.39e-02f  1
  88r 4.9707120e+00 2.25e+00 8.12e+02  -1.4 1.32e+01    -  1.92e-01 1.35e-01f  1
  89r 4.9977855e+00 1.56e+00 5.65e+02  -2.7 3.98e-01   2.0 3.06e-01 3.06e-01f  1
iter    objective    inf_pr   inf_du lg(mu)  ||d||  lg(rg) alpha_du alpha_pr  ls
  90r 4.9985207e+00 1.33e+00 4.58e+02  -1.9 3.07e+00    -  9.68e-02 1.88e-01f  1
  91r 4.9987049e+00 1.20e+00 4.39e+02  -1.6 5.29e+00    -  3.15e-03 6.22e-02f  1
  92r 4.9988069e+00 1.15e+00 4.42e+02  -2.2 2.32e+00   1.0 2.98e-03 5.39e-02f  1
  93r 4.9999309e+00 9.04e-01 5.96e+02  -2.2 4.41e-01   1.9 7.89e-02 5.87e-01h  1
  94r 4.9999580e+00 1.03e+00 4.12e+02  -2.2 4.31e-01    -  3.41e-01 4.67e-01f  1
  95r 4.9999728e+00 7.98e+00 4.47e+02  -3.0 2.16e+00   1.8 3.23e-02 2.96e-01f  1
  96r 4.9999717e+00 8.57e+00 4.60e+02  -2.9 5.53e+01   1.8 1.44e-04 3.94e-03f  1
  97r 4.9999709e+00 8.76e+00 4.93e+02  -3.0 7.61e+01   1.7 4.93e-03 2.39e-03f  1
  98r 4.9999706e+00 8.73e+00 5.12e+02  -2.5 1.25e+01   1.7 9.20e-02 7.83e-03f  1
  99r 4.9999743e+00 7.35e+00 3.75e+02  -2.5 7.14e-01   1.6 1.18e-01 1.59e-01h  1
iter    objective    inf_pr   inf_du lg(mu)  ||d||  lg(rg) alpha_du alpha_pr  ls
 100r 4.9999743e+00 7.34e+00 3.75e+02  -2.5 1.64e+00   1.6 1.58e-01 1.35e-03h  1
 101r 4.9999758e+00 5.81e+00 4.19e+02  -2.4 7.00e-01   1.5 5.42e-01 2.29e-01h  1
 102r 4.9999825e+00 3.45e+00 2.32e+02  -2.6 5.49e-01   1.5 3.04e-01 4.25e-01h  1
 103r 4.9999817e+00 3.49e+00 5.01e+02  -2.7 4.99e+01   2.3 6.61e-04 4.88e-03f  1
 104r 4.9999818e+00 3.45e+00 4.59e+02  -2.9 2.32e+00   1.4 8.00e-02 9.51e-03f  1
 105r 4.9999684e+00 2.93e+00 2.60e+02  -1.7 5.84e-01   1.3 3.78e-01 1.50e-01h  1
 106r 4.9999692e+00 3.56e+00 1.73e+02  -2.9 7.32e+00   2.2 3.40e-02 3.74e-02f  1
 107r 4.9999684e+00 4.36e+00 1.88e+02  -1.3 2.01e+02   2.1 1.39e-05 9.50e-04f  1
 108r 4.9998974e+00 3.60e+00 1.95e+02  -1.3 4.09e+01   2.1 9.88e-02 2.96e-01H  1
 109r 4.9998947e+00 9.03e+00 4.39e+02  -3.7 8.37e+01   2.0 2.39e-05 6.17e-03f  1
iter    objective    inf_pr   inf_du lg(mu)  ||d||  lg(rg) alpha_du alpha_pr  ls
 110r 4.9998932e+00 9.22e+00 3.06e+02  -1.3 3.50e+02   2.0 1.49e-05 3.02e-04f  1
 111r 4.9998943e+00 9.18e+00 4.12e+02  -2.2 2.94e+03    -  7.85e-03 4.89e-03H  1
 112r 4.9998943e+00 9.18e+00 4.21e+02  -1.3 3.96e+03    -  2.15e-03 3.07e-04H  1
 113r 4.9998942e+00 9.18e+00 4.18e+02  -1.3 2.32e+01   1.9 3.22e-03 4.57e-05f  1
 114r 4.9998933e+00 9.18e+00 3.90e+02  -1.3 1.67e+06   1.9 2.78e-08 8.60e-09f  1
 115r 4.9998885e+00 9.15e+00 3.21e+02  -1.3 9.24e+00   1.8 1.94e-03 3.55e-03h  1
 116r 4.9998725e+00 8.67e+00 2.63e+02  -1.3 1.02e+00   1.8 1.67e-01 5.29e-02h  1
 117r 4.9998585e+00 8.40e+00 3.34e+02  -1.3 1.77e+00   1.7 6.17e-03 3.06e-02h  1
 118r 4.9998483e+00 8.32e+00 4.39e+02  -1.3 3.98e+00   1.7 5.80e-02 1.03e-02h  1
 119r 4.9997864e+00 7.98e+00 8.87e+02  -1.3 4.44e+00   1.6 4.05e-02 4.10e-02h  1
iter    objective    inf_pr   inf_du lg(mu)  ||d||  lg(rg) alpha_du alpha_pr  ls
 120r 4.9999855e+00 7.97e+00 3.70e+02  -1.3 1.14e+02   2.5 1.77e-03 2.71e-03f  1
 121r 4.9999999e+00 3.92e+00 4.21e+02  -3.5 3.10e-01   1.5 2.61e-02 5.10e-01h  1
 122r 4.9999973e+00 1.34e+00 2.67e+02  -3.3 1.88e-01   1.5 4.47e-01 6.61e-01h  1
 123r 4.9999969e+00 1.21e+00 3.34e+02  -3.0 6.81e+05    -  1.17e-01 1.06e-01H  1
 124r 4.9999969e+00 1.21e+00 1.67e+02  -4.9 7.27e+07    -  0.00e+00 1.55e-09R  2
Cannot call restoration phase at point that is almost feasible for the restoration NLP (violation 0.000000e+00).
Abort in line search due to no other fall back.
Step computation in the restoration phase failed.

Number of Iterations....: 124

                                   (scaled)                 (unscaled)
Objective...............:   4.9999969051240747e+00    4.9999969051240747e+00
Dual infeasibility......:   1.6736605691701524e+02    1.6736605691701524e+02
Constraint violation....:   1.2122362409235543e+00    1.2122362409235543e+00
Variable bound violation:   0.0000000000000000e+00    0.0000000000000000e+00
Complementarity.........:   4.3565053325225936e-02    4.3565053325225936e-02
Overall NLP error.......:   1.3694687916948268e+02    1.6736605691701524e+02


Number of objective function evaluations             = 374
Number of objective gradient evaluations             = 86
Number of equality constraint evaluations            = 375
Number of inequality constraint evaluations          = 0
Number of equality constraint Jacobian evaluations   = 134
Number of inequality constraint Jacobian evaluations = 0
Number of Lagrangian Hessian evaluations             = 0
Total seconds in IPOPT                               = 3.996

EXIT: Restoration Failed!
